'hugeuniform109'
150 75 75
148
145
144
143
140
137
136
129
128
126
122
120
118
113
109
109
108
107
106
104
104
102
99
95
90
88
88
86
84
83
83
83
80
78
77
77
76
74
74
73
71
68
68
64
61
58
54
53
53
51
49
49
48
47
45
45
43
43
42
40
35
33
33
32
31
30
29
23
23
20
18
16
15
10
3
